5
8
20
1 1.3 1.55 1.75 2.1
33 6 30 38 35 12 45 20 41 22 35 9 35 24 14 15 23 42 18 6 33 24 29 41 45 32 34 23 28 9 39 37 45 7 31 46 49 42 11 12 31 23 41 23 32 37 43 46 35 17 20 5 17 44 15 9 15 6 14 13 22 29 13 45 36 49 16 18 6 42 46 29 44 33 35 39 48 9 27 40 17 20 13 20 44 13 19 21 41 24 33 15 24 39 31 18 36 16 16 10 38 35 20 34 23 24 10 31 35 40 35 7 41 32 38 29 21 16 10 13 19 33 45 12 37 24 23 18 8 18 14 27 10 20 25 13 27 46 43 20 34 39 41 15 27 9 42 37 5 16 28 45 44 5 5 39 27 48 8 22 